120
1000
200
200
200
200
199
198
198
197
197
197
195
195
195
194
194
193
193
191
190
190
190
190
189
188
188
188
187
187
187
185
185
185
185
184
183
183
182
182
182
180
179
178
178
178
178
178
177
177
176
176
176
176
176
176
175
175
175
175
174
173
173
172
172
172
172
172
171
171
171
171
171
170
170
170
170
169
168
168
168
167
166
165
165
164
164
164
163
163
162
162
161
161
161
160
159
159
158
157
155
155
155
155
154
153
153
153
153
153
153
153
153
152
151
151
151
151
150
150
150
150
